c Reading file experiments/california_census/mmc_encoding/mmc_cegqs_0.dimacs
c Building 1-fold quantitative self-composition...
c ind 180  182  183  184  197  199  200  201  202  203  204  205  206  207  208  209  275  277  279  280  281  302  304  306  307  308  309  310  311  312  313  314  315  316  317  318  322  323  327  328 0
c previous ind: 424  425  428  429  432  433  434  437  438  441  442  445  446  449  450  453  454  457  458  459  461  462  463 0
c This is a CNF SAT formula in the DIMACS CNF format,
c produced with the bc2cnf translator by Tommi Junttila;
c see http://users.ics.aalto.fi/tjunttil/circuits/index.html
c phi_Gamma_det <-> 1
c phi_Gamma <-> 1
c phi_T_feature_det <-> 1
c phi_T_transitions <-> 1
c phi_T_transitions_consistency <-> 1
c phi_T <-> 1
c phi_sim_leaves <-> 1
c phi_sim_transition <-> 1
c phi_sim <-> 1
c FORMULA <-> 1
c pi_1 <-> 2
c pi_0 <-> 67
c pi_Class_2 <-> 116
c tau_1_3_Class_3 <-> 180
c tau_1_3_Class_2 <-> 182
c tau_1_3_Class_1 <-> 183
c tau_1_3_Class_0 <-> 184
c tau_1_2_Class_3 <-> 197
c tau_1_2_Class_2 <-> 199
c tau_1_2_Class_1 <-> 200
c tau_1_2_Class_0 <-> 201
c tau_1_1_Class_3 <-> 202
c tau_1_1_Class_2 <-> 203
c tau_1_1_Class_1 <-> 204
c tau_1_1_Class_0 <-> 205
c tau_1_0_Class_3 <-> 206
c tau_1_0_Class_2 <-> 207
c tau_1_0_Class_1 <-> 208
c tau_1_0_Class_0 <-> 209
c tau_0_3_Class_3 <-> 275
c tau_0_3_Class_2 <-> 277
c tau_0_3_Class_1 <-> 279
c tau_0_3_Class_0 <-> 280
c tau_0_3_1 <-> 281
c tau_0_2_Class_3 <-> 302
c tau_0_2_Class_2 <-> 304
c tau_0_2_Class_1 <-> 306
c tau_0_2_Class_0 <-> 307
c tau_0_2_1 <-> 308
c tau_0_1_Class_3 <-> 309
c tau_0_1_Class_2 <-> 310
c tau_0_1_Class_1 <-> 311
c tau_0_1_Class_0 <-> 312
c tau_0_1_1 <-> 313
c tau_0_0_Class_3 <-> 314
c tau_0_0_Class_2 <-> 315
c tau_0_0_Class_1 <-> 316
c tau_0_0_Class_0 <-> 317
c tau_0_0_1 <-> 318
c lam_1_median_income <-> 322
c lam_1_population <-> 323
c lam_0_median_income <-> 327
c lam_0_population <-> 328
c phi_Gamma_val <-> 422
c median_income_P987 <-> 424
c population_P3227200 <-> 425
c median_income_P358 <-> 428
c population_P2530200 <-> 429
c pi_Class_3 <-> 432
c Class_P300 <-> 432
c median_income_P851 <-> 433
c population_P252300 <-> 434
c median_income_P408 <-> 437
c population_P2557700 <-> 438
c median_income_P1027 <-> 441
c population_P676800 <-> 442
c median_income_P506 <-> 445
c population_P2695900 <-> 446
c median_income_P770 <-> 449
c population_P2804700 <-> 450
c median_income_P650 <-> 453
c population_P2055400 <-> 454
c pi_Class_1 <-> 457
c Class_P100 <-> 457
c median_income_P387 <-> 458
c population_P1184500 <-> 459
c pi_Class_0 <-> 461
c Class_P0 <-> 461
c median_income_P1085 <-> 462
c population_P3269000 <-> 463
c ind 424 425 428 429 432 433 434 437 438 441 442 445 446 449 450 453 454 457 458 459 461 462 463 0
p cnf 465 1226
1 0
2 -3 0
2 -9 0
-2 9 3 0
-3 4 0
-3 38 0
3 -38 -4 0
-4 5 0
-4 322 0
4 -322 -5 0
5 -6 0
5 -57 0
-5 57 6 0
6 -7 0
6 -59 0
-6 59 7 0
7 -8 0
7 -61 0
-7 61 8 0
8 -25 0
8 -65 0
-8 65 25 0
9 -10 0
9 -16 0
-9 16 10 0
-10 11 0
-10 47 0
10 -47 -11 0
-11 12 0
-11 322 0
11 -322 -12 0
12 -13 0
12 -55 0
-12 55 13 0
13 -14 0
13 -45 0
-13 45 14 0
14 -15 0
14 -35 0
-14 35 15 0
15 -63 0
15 -66 0
-15 66 63 0
16 -17 0
16 -26 0
-16 26 17 0
-17 18 0
-17 24 0
17 -24 -18 0
-18 19 0
-18 20 0
18 -20 -19 0
19 180 0
19 -432 0
-19 432 -180 0
-20 -182 0
-20 21 0
20 -21 182 0
-21 22 0
-21 23 0
21 -23 -22 0
22 183 0
22 -457 0
-22 457 -183 0
23 184 0
23 -461 0
-23 461 -184 0
-24 25 0
-24 323 0
24 -323 -25 0
-25 458 0
-25 459 0
25 -459 -458 0
26 -27 0
26 -36 0
-26 36 27 0
-27 28 0
-27 34 0
27 -34 -28 0
-28 29 0
-28 30 0
28 -30 -29 0
29 197 0
29 -432 0
-29 432 -197 0
-30 -199 0
-30 31 0
30 -31 199 0
-31 32 0
-31 33 0
31 -33 -32 0
32 200 0
32 -457 0
-32 457 -200 0
33 201 0
33 -461 0
-33 461 -201 0
-34 35 0
-34 323 0
34 -323 -35 0
-35 441 0
-35 442 0
35 -442 -441 0
36 -37 0
36 -46 0
-36 46 37 0
-37 38 0
-37 44 0
37 -44 -38 0
-38 39 0
-38 40 0
38 -40 -39 0
39 202 0
39 -432 0
-39 432 -202 0
-40 -203 0
-40 41 0
40 -41 203 0
-41 42 0
-41 43 0
41 -43 -42 0
42 204 0
42 -457 0
-42 457 -204 0
43 205 0
43 -461 0
-43 461 -205 0
-44 45 0
-44 323 0
44 -323 -45 0
-45 433 0
-45 434 0
45 -434 -433 0
-46 47 0
-46 53 0
46 -53 -47 0
-47 48 0
-47 49 0
47 -49 -48 0
48 206 0
48 -432 0
-48 432 -206 0
-49 -207 0
-49 50 0
49 -50 207 0
-50 51 0
-50 52 0
50 -52 -51 0
51 208 0
51 -457 0
-51 457 -208 0
52 209 0
52 -461 0
-52 461 -209 0
-53 54 0
-53 323 0
53 -323 -54 0
54 -55 0
54 -56 0
-54 56 55 0
-55 424 0
-55 425 0
55 -425 -424 0
56 -57 0
56 -58 0
-56 58 57 0
-57 428 0
-57 429 0
57 -429 -428 0
58 -59 0
58 -60 0
-58 60 59 0
-59 437 0
-59 438 0
59 -438 -437 0
60 -61 0
60 -62 0
-60 62 61 0
-61 445 0
-61 446 0
61 -446 -445 0
62 -63 0
62 -64 0
-62 64 63 0
-63 449 0
-63 450 0
63 -450 -449 0
64 -65 0
64 -66 0
-64 66 65 0
-65 453 0
-65 454 0
65 -454 -453 0
-66 462 0
-66 463 0
66 -463 -462 0
67 -68 0
67 -70 0
-67 70 68 0
67 0
-68 69 0
-68 97 0
68 -97 -69 0
-69 5 0
-69 327 0
69 -327 -5 0
70 -71 0
70 -73 0
-70 73 71 0
-71 72 0
-71 107 0
71 -107 -72 0
-72 12 0
-72 327 0
72 -327 -12 0
73 -74 0
73 -84 0
-73 84 74 0
-74 75 0
-74 83 0
74 -83 -75 0
-75 76 0
-75 77 0
75 -77 -76 0
76 275 0
76 -432 0
-76 432 -275 0
-77 -277 0
-77 78 0
77 -78 277 0
-78 79 0
-78 80 0
78 -80 -79 0
79 279 0
79 -457 0
-79 457 -279 0
-80 81 0
-80 82 0
80 -82 -81 0
81 280 0
81 -461 0
-81 461 -280 0
82 -2 0
82 281 0
-82 -281 2 0
-83 25 0
-83 328 0
83 -328 -25 0
84 -85 0
84 -95 0
-84 95 85 0
-85 86 0
-85 94 0
85 -94 -86 0
-86 87 0
-86 88 0
86 -88 -87 0
87 302 0
87 -432 0
-87 432 -302 0
-88 -304 0
-88 89 0
88 -89 304 0
-89 90 0
-89 91 0
89 -91 -90 0
90 306 0
90 -457 0
-90 457 -306 0
-91 92 0
-91 93 0
91 -93 -92 0
92 307 0
92 -461 0
-92 461 -307 0
93 -2 0
93 308 0
-93 -308 2 0
-94 35 0
-94 328 0
94 -328 -35 0
95 -96 0
95 -106 0
-95 106 96 0
-96 97 0
-96 105 0
96 -105 -97 0
-97 98 0
-97 99 0
97 -99 -98 0
98 309 0
98 -432 0
-98 432 -309 0
-99 -310 0
-99 100 0
99 -100 310 0
-100 101 0
-100 102 0
100 -102 -101 0
101 311 0
101 -457 0
-101 457 -311 0
-102 103 0
-102 104 0
102 -104 -103 0
103 312 0
103 -461 0
-103 461 -312 0
104 -2 0
104 313 0
-104 -313 2 0
-105 45 0
-105 328 0
105 -328 -45 0
-106 107 0
-106 115 0
106 -115 -107 0
-107 108 0
-107 109 0
107 -109 -108 0
108 314 0
108 -432 0
-108 432 -314 0
-109 -315 0
-109 110 0
109 -110 315 0
-110 111 0
-110 112 0
110 -112 -111 0
111 316 0
111 -457 0
-111 457 -316 0
-112 113 0
-112 114 0
112 -114 -113 0
113 317 0
113 -461 0
-113 461 -317 0
114 -2 0
114 318 0
-114 -318 2 0
-115 54 0
-115 328 0
115 -328 -54 0
-116 0
117 322 0
117 -118 0
-117 118 -322 0
117 0
-118 -180 0
-118 119 0
118 -119 180 0
-119 -182 0
-119 120 0
119 -120 182 0
-120 -183 0
-120 121 0
120 -121 183 0
-121 -184 0
-121 122 0
121 -122 184 0
-122 -197 0
-122 123 0
122 -123 197 0
-123 -199 0
-123 124 0
123 -124 199 0
-124 -200 0
-124 -201 0
124 201 200 0
125 327 0
125 -126 0
-125 126 -327 0
125 0
-126 -275 0
-126 127 0
126 -127 275 0
-127 -277 0
-127 128 0
127 -128 277 0
-128 -279 0
-128 129 0
128 -129 279 0
-129 -280 0
-129 130 0
129 -130 280 0
-130 -281 0
-130 131 0
130 -131 281 0
-131 -302 0
-131 132 0
131 -132 302 0
-132 -304 0
-132 133 0
132 -133 304 0
-133 -306 0
-133 134 0
133 -134 306 0
-134 -307 0
-134 -308 0
134 308 307 0
135 322 0
135 -136 0
-135 136 -322 0
135 0
-136 137 0
-136 151 0
136 -151 -137 0
137 -138 0
137 -140 0
-137 140 138 0
-138 139 0
-138 202 0
138 -202 -139 0
-139 -203 0
-139 143 0
139 -143 203 0
140 -141 0
140 -144 0
-140 144 141 0
-141 142 0
-141 203 0
141 -203 -142 0
-142 -202 0
-142 143 0
142 -143 202 0
-143 -204 0
-143 -205 0
143 205 204 0
144 -145 0
144 -148 0
-144 148 145 0
-145 146 0
-145 204 0
145 -204 -146 0
-146 -202 0
-146 147 0
146 -147 202 0
-147 -203 0
-147 -205 0
147 205 203 0
-148 149 0
-148 205 0
148 -205 -149 0
-149 -202 0
-149 150 0
149 -150 202 0
-150 -203 0
-150 -204 0
150 204 203 0
151 -152 0
151 -154 0
-151 154 152 0
-152 153 0
-152 206 0
152 -206 -153 0
-153 -207 0
-153 157 0
153 -157 207 0
154 -155 0
154 -158 0
-154 158 155 0
-155 156 0
-155 207 0
155 -207 -156 0
-156 -206 0
-156 157 0
156 -157 206 0
-157 -208 0
-157 -209 0
157 209 208 0
158 -159 0
158 -162 0
-158 162 159 0
-159 160 0
-159 208 0
159 -208 -160 0
-160 -206 0
-160 161 0
160 -161 206 0
-161 -207 0
-161 -209 0
161 209 207 0
-162 163 0
-162 209 0
162 -209 -163 0
-163 -206 0
-163 164 0
163 -164 206 0
-164 -207 0
-164 -208 0
164 208 207 0
165 323 0
165 -166 0
-165 166 -323 0
165 0
-166 167 0
-166 185 0
166 -185 -167 0
167 -168 0
167 -170 0
-167 170 168 0
-168 169 0
-168 180 0
168 -180 -169 0
-169 -182 0
-169 173 0
169 -173 182 0
170 -171 0
170 -174 0
-170 174 171 0
-171 172 0
-171 182 0
171 -182 -172 0
-172 -180 0
-172 173 0
172 -173 180 0
-173 -183 0
-173 -184 0
173 184 183 0
174 -175 0
174 -178 0
-174 178 175 0
-175 176 0
-175 183 0
175 -183 -176 0
-176 -180 0
-176 177 0
176 -177 180 0
-177 -182 0
-177 -184 0
177 184 182 0
-178 179 0
-178 184 0
178 -184 -179 0
-179 -180 0
-179 181 0
179 -181 180 0
-181 -182 0
-181 -183 0
181 183 182 0
-185 136 0
-185 186 0
185 -186 -136 0
186 -187 0
186 -188 0
-186 188 187 0
-187 123 0
-187 197 0
187 -197 -123 0
188 -189 0
188 -191 0
-188 191 189 0
-189 190 0
-189 199 0
189 -199 -190 0
-190 -197 0
-190 124 0
190 -124 197 0
191 -192 0
191 -195 0
-191 195 192 0
-192 193 0
-192 200 0
192 -200 -193 0
-193 -197 0
-193 194 0
193 -194 197 0
-194 -199 0
-194 -201 0
194 201 199 0
-195 196 0
-195 201 0
195 -201 -196 0
-196 -197 0
-196 198 0
196 -198 197 0
-198 -199 0
-198 -200 0
198 200 199 0
210 327 0
210 -211 0
-210 211 -327 0
210 0
-211 212 0
-211 233 0
211 -233 -212 0
212 -213 0
212 -229 0
-212 229 213 0
213 -214 0
213 -216 0
-213 216 214 0
-214 215 0
-214 309 0
214 -309 -215 0
-215 -313 0
-215 231 0
215 -231 313 0
216 -217 0
216 -220 0
-216 220 217 0
-217 218 0
-217 310 0
217 -310 -218 0
-218 -313 0
-218 219 0
218 -219 313 0
-219 -309 0
-219 232 0
219 -232 309 0
220 -221 0
220 -225 0
-220 225 221 0
-221 222 0
-221 311 0
221 -311 -222 0
-222 -313 0
-222 223 0
222 -223 313 0
-223 -309 0
-223 224 0
223 -224 309 0
-224 -310 0
-224 -312 0
224 312 310 0
-225 226 0
-225 312 0
225 -312 -226 0
-226 -313 0
-226 227 0
226 -227 313 0
-227 -309 0
-227 228 0
227 -228 309 0
-228 -310 0
-228 -311 0
228 311 310 0
-229 230 0
-229 313 0
229 -313 -230 0
-230 -309 0
-230 231 0
230 -231 309 0
-231 -310 0
-231 232 0
231 -232 310 0
-232 -311 0
-232 -312 0
232 312 311 0
233 -234 0
233 -250 0
-233 250 234 0
234 -235 0
234 -237 0
-234 237 235 0
-235 236 0
-235 314 0
235 -314 -236 0
-236 -318 0
-236 252 0
236 -252 318 0
237 -238 0
237 -241 0
-237 241 238 0
-238 239 0
-238 315 0
238 -315 -239 0
-239 -318 0
-239 240 0
239 -240 318 0
-240 -314 0
-240 253 0
240 -253 314 0
241 -242 0
241 -246 0
-241 246 242 0
-242 243 0
-242 316 0
242 -316 -243 0
-243 -318 0
-243 244 0
243 -244 318 0
-244 -314 0
-244 245 0
244 -245 314 0
-245 -315 0
-245 -317 0
245 317 315 0
-246 247 0
-246 317 0
246 -317 -247 0
-247 -318 0
-247 248 0
247 -248 318 0
-248 -314 0
-248 249 0
248 -249 314 0
-249 -315 0
-249 -316 0
249 316 315 0
-250 251 0
-250 318 0
250 -318 -251 0
-251 -314 0
-251 252 0
251 -252 314 0
-252 -315 0
-252 253 0
252 -253 315 0
-253 -316 0
-253 -317 0
253 317 316 0
254 328 0
254 -255 0
-254 255 -328 0
254 0
-255 256 0
-255 282 0
255 -282 -256 0
256 -257 0
256 -273 0
-256 273 257 0
257 -258 0
257 -260 0
-257 260 258 0
-258 259 0
-258 275 0
258 -275 -259 0
-259 -281 0
-259 276 0
259 -276 281 0
260 -261 0
260 -264 0
-260 264 261 0
-261 262 0
-261 277 0
261 -277 -262 0
-262 -281 0
-262 263 0
262 -263 281 0
-263 -275 0
-263 278 0
263 -278 275 0
264 -265 0
264 -269 0
-264 269 265 0
-265 266 0
-265 279 0
265 -279 -266 0
-266 -281 0
-266 267 0
266 -267 281 0
-267 -275 0
-267 268 0
267 -268 275 0
-268 -277 0
-268 -280 0
268 280 277 0
-269 270 0
-269 280 0
269 -280 -270 0
-270 -281 0
-270 271 0
270 -271 281 0
-271 -275 0
-271 272 0
271 -272 275 0
-272 -277 0
-272 -279 0
272 279 277 0
-273 274 0
-273 281 0
273 -281 -274 0
-274 -275 0
-274 276 0
274 -276 275 0
-276 -277 0
-276 278 0
276 -278 277 0
-278 -279 0
-278 -280 0
278 280 279 0
-282 211 0
-282 283 0
282 -283 -211 0
283 -284 0
283 -300 0
-283 300 284 0
284 -285 0
284 -287 0
-284 287 285 0
-285 286 0
-285 302 0
285 -302 -286 0
-286 -308 0
-286 303 0
286 -303 308 0
287 -288 0
287 -291 0
-287 291 288 0
-288 289 0
-288 304 0
288 -304 -289 0
-289 -308 0
-289 290 0
289 -290 308 0
-290 -302 0
-290 305 0
290 -305 302 0
291 -292 0
291 -296 0
-291 296 292 0
-292 293 0
-292 306 0
292 -306 -293 0
-293 -308 0
-293 294 0
293 -294 308 0
-294 -302 0
-294 295 0
294 -295 302 0
-295 -304 0
-295 -307 0
295 307 304 0
-296 297 0
-296 307 0
296 -307 -297 0
-297 -308 0
-297 298 0
297 -298 308 0
-298 -302 0
-298 299 0
298 -299 302 0
-299 -304 0
-299 -306 0
299 306 304 0
-300 301 0
-300 308 0
300 -308 -301 0
-301 -302 0
-301 303 0
301 -303 302 0
-303 -304 0
-303 305 0
303 -305 304 0
-305 -306 0
-305 -307 0
305 307 306 0
319 -320 0
319 -321 0
-319 321 320 0
319 0
-320 -323 0
-320 322 0
320 -322 323 0
-321 -322 0
-321 323 0
321 -323 322 0
324 -325 0
324 -326 0
-324 326 325 0
324 0
-325 -328 0
-325 327 0
325 -327 328 0
-326 -327 0
-326 328 0
326 -328 327 0
329 457 0
329 432 0
-329 -432 -457 0
329 0
330 461 0
330 -331 0
-330 331 -461 0
330 0
-331 -457 0
-331 -432 0
331 432 457 0
332 428 0
332 424 0
-332 -424 -428 0
332 0
333 433 0
333 -334 0
-333 334 -433 0
333 0
-334 -428 0
-334 -424 0
334 424 428 0
335 437 0
335 -336 0
-335 336 -437 0
335 0
-336 -424 0
-336 337 0
336 -337 424 0
-337 -428 0
-337 -433 0
337 433 428 0
338 441 0
338 -339 0
-338 339 -441 0
338 0
-339 -424 0
-339 340 0
339 -340 424 0
-340 -428 0
-340 341 0
340 -341 428 0
-341 -433 0
-341 -437 0
341 437 433 0
342 445 0
342 -343 0
-342 343 -445 0
342 0
-343 -424 0
-343 344 0
343 -344 424 0
-344 -428 0
-344 345 0
344 -345 428 0
-345 -433 0
-345 346 0
345 -346 433 0
-346 -437 0
-346 -441 0
346 441 437 0
347 449 0
347 -348 0
-347 348 -449 0
347 0
-348 -424 0
-348 349 0
348 -349 424 0
-349 -428 0
-349 350 0
349 -350 428 0
-350 -433 0
-350 351 0
350 -351 433 0
-351 -437 0
-351 352 0
351 -352 437 0
-352 -441 0
-352 -445 0
352 445 441 0
353 453 0
353 -354 0
-353 354 -453 0
353 0
-354 -424 0
-354 355 0
354 -355 424 0
-355 -428 0
-355 356 0
355 -356 428 0
-356 -433 0
-356 357 0
356 -357 433 0
-357 -437 0
-357 358 0
357 -358 437 0
-358 -441 0
-358 359 0
358 -359 441 0
-359 -445 0
-359 -449 0
359 449 445 0
360 458 0
360 -361 0
-360 361 -458 0
360 0
-361 -424 0
-361 362 0
361 -362 424 0
-362 -428 0
-362 363 0
362 -363 428 0
-363 -433 0
-363 364 0
363 -364 433 0
-364 -437 0
-364 365 0
364 -365 437 0
-365 -441 0
-365 366 0
365 -366 441 0
-366 -445 0
-366 367 0
366 -367 445 0
-367 -449 0
-367 -453 0
367 453 449 0
368 462 0
368 -369 0
-368 369 -462 0
368 0
-369 -424 0
-369 370 0
369 -370 424 0
-370 -428 0
-370 371 0
370 -371 428 0
-371 -433 0
-371 372 0
371 -372 433 0
-372 -437 0
-372 373 0
372 -373 437 0
-373 -441 0
-373 374 0
373 -374 441 0
-374 -445 0
-374 375 0
374 -375 445 0
-375 -449 0
-375 376 0
375 -376 449 0
-376 -453 0
-376 -458 0
376 458 453 0
377 429 0
377 425 0
-377 -425 -429 0
377 0
378 434 0
378 -379 0
-378 379 -434 0
378 0
-379 -429 0
-379 -425 0
379 425 429 0
380 438 0
380 -381 0
-380 381 -438 0
380 0
-381 -425 0
-381 382 0
381 -382 425 0
-382 -429 0
-382 -434 0
382 434 429 0
383 442 0
383 -384 0
-383 384 -442 0
383 0
-384 -425 0
-384 385 0
384 -385 425 0
-385 -429 0
-385 386 0
385 -386 429 0
-386 -434 0
-386 -438 0
386 438 434 0
387 446 0
387 -388 0
-387 388 -446 0
387 0
-388 -425 0
-388 389 0
388 -389 425 0
-389 -429 0
-389 390 0
389 -390 429 0
-390 -434 0
-390 391 0
390 -391 434 0
-391 -438 0
-391 -442 0
391 442 438 0
392 450 0
392 -393 0
-392 393 -450 0
392 0
-393 -425 0
-393 394 0
393 -394 425 0
-394 -429 0
-394 395 0
394 -395 429 0
-395 -434 0
-395 396 0
395 -396 434 0
-396 -438 0
-396 397 0
396 -397 438 0
-397 -442 0
-397 -446 0
397 446 442 0
398 454 0
398 -399 0
-398 399 -454 0
398 0
-399 -425 0
-399 400 0
399 -400 425 0
-400 -429 0
-400 401 0
400 -401 429 0
-401 -434 0
-401 402 0
401 -402 434 0
-402 -438 0
-402 403 0
402 -403 438 0
-403 -442 0
-403 404 0
403 -404 442 0
-404 -446 0
-404 -450 0
404 450 446 0
405 459 0
405 -406 0
-405 406 -459 0
405 0
-406 -425 0
-406 407 0
406 -407 425 0
-407 -429 0
-407 408 0
407 -408 429 0
-408 -434 0
-408 409 0
408 -409 434 0
-409 -438 0
-409 410 0
409 -410 438 0
-410 -442 0
-410 411 0
410 -411 442 0
-411 -446 0
-411 412 0
411 -412 446 0
-412 -450 0
-412 -454 0
412 454 450 0
413 463 0
413 -414 0
-413 414 -463 0
413 0
-414 -425 0
-414 415 0
414 -415 425 0
-415 -429 0
-415 416 0
415 -416 429 0
-416 -434 0
-416 417 0
416 -417 434 0
-417 -438 0
-417 418 0
417 -418 438 0
-418 -442 0
-418 419 0
418 -419 442 0
-419 -446 0
-419 420 0
419 -420 446 0
-420 -450 0
-420 421 0
420 -421 450 0
-421 -454 0
-421 -459 0
421 459 454 0
422 -423 0
422 -426 0
-422 426 423 0
422 0
-423 55 0
-423 461 0
423 -461 -55 0
426 -427 0
426 -430 0
-426 430 427 0
-427 57 0
-427 457 0
427 -457 -57 0
430 -431 0
430 -435 0
-430 435 431 0
-431 45 0
-431 432 0
431 -432 -45 0
435 -436 0
435 -439 0
-435 439 436 0
-436 59 0
-436 461 0
436 -461 -59 0
439 -440 0
439 -443 0
-439 443 440 0
-440 35 0
-440 457 0
440 -457 -35 0
443 -444 0
443 -447 0
-443 447 444 0
-444 61 0
-444 461 0
444 -461 -61 0
447 -448 0
447 -451 0
-447 451 448 0
-448 63 0
-448 461 0
448 -461 -63 0
451 -452 0
451 -455 0
-451 455 452 0
-452 65 0
-452 457 0
452 -457 -65 0
455 -456 0
455 -460 0
-455 460 456 0
-456 25 0
-456 457 0
456 -457 -25 0
-460 66 0
-460 461 0
460 -461 -66 0
